clingo version 5.4.0
Reading from merger/Niklas/merge.lp ...
Solving...
Answer: 1
occurs(object(robot,1),action(move,(0,-1)),1). occurs(object(robot,1),action(move,(0,-1)),3). occurs(object(robot,2),action(move,(0,-1)),1). occurs(object(robot,2),action(move,(-1,0)),3). occurs(object(robot,1),action(move,(0,-1)),7). occurs(object(robot,2),action(move,(0,0)),6). occurs(object(robot,2),action(move,(0,-1)),7). occurs(object(robot,2),action(move,(0,-1)),5). occurs(object(robot,1),action(move,(1,0)),5). occurs(object(robot,1),action(move,(-1,0)),6). occurs(object(robot,2),action(move,(0,0)),4). occurs(object(robot,2),action(move,(-1,0)),2). occurs(object(robot,1),action(move,(1,0)),4). occurs(object(robot,1),action(move,(1,0)),2).
Optimization: 7
Answer: 2
occurs(object(robot,1),action(move,(0,-1)),1). occurs(object(robot,1),action(move,(0,-1)),2). occurs(object(robot,1),action(move,(1,0)),3). occurs(object(robot,2),action(move,(0,-1)),1). occurs(object(robot,2),action(move,(0,-1)),2). occurs(object(robot,2),action(move,(-1,0)),3). occurs(object(robot,1),action(move,(0,-1)),7). occurs(object(robot,2),action(move,(0,-1)),6). occurs(object(robot,2),action(move,(0,-1)),7). occurs(object(robot,2),action(move,(-1,0)),5). occurs(object(robot,1),action(move,(1,0)),5). occurs(object(robot,1),action(move,(-1,0)),6). occurs(object(robot,2),action(move,(0,1)),4). occurs(object(robot,1),action(move,(1,0)),4).
Optimization: 4
Answer: 3
occurs(object(robot,1),action(move,(0,-1)),1). occurs(object(robot,1),action(move,(0,-1)),2). occurs(object(robot,1),action(move,(1,0)),3). occurs(object(robot,2),action(move,(0,-1)),1). occurs(object(robot,2),action(move,(0,-1)),2). occurs(object(robot,2),action(move,(-1,0)),3). occurs(object(robot,2),action(move,(0,-1)),4). occurs(object(robot,1),action(move,(0,-1)),7). occurs(object(robot,2),action(move,(0,0)),6). occurs(object(robot,2),action(move,(0,0)),7). occurs(object(robot,2),action(move,(-1,0)),5). occurs(object(robot,1),action(move,(1,0)),5). occurs(object(robot,1),action(move,(-1,0)),6). occurs(object(robot,1),action(move,(1,0)),4).
Optimization: 3
Answer: 4
occurs(object(robot,1),action(move,(0,-1)),1). occurs(object(robot,1),action(move,(0,-1)),2). occurs(object(robot,1),action(move,(1,0)),3). occurs(object(robot,2),action(move,(0,-1)),1). occurs(object(robot,2),action(move,(0,-1)),2). occurs(object(robot,2),action(move,(-1,0)),3). occurs(object(robot,2),action(move,(0,-1)),4). occurs(object(robot,1),action(move,(0,-1)),6). occurs(object(robot,1),action(move,(0,0)),7). occurs(object(robot,2),action(move,(0,0)),6). occurs(object(robot,2),action(move,(0,0)),7). occurs(object(robot,2),action(move,(-1,0)),5). occurs(object(robot,1),action(move,(0,0)),5). occurs(object(robot,1),action(move,(1,0)),4).
Optimization: 2
OPTIMUM FOUND

Models       : 4
  Optimum    : yes
Optimization : 2
Calls        : 1
Time         : 0.044s (Solving: 0.00s 1st Model: 0.00s Unsat: 0.00s)
CPU Time     : 0.028s
